\ Model Cl_25_Ins_2.lp
\ LP format - for model browsing. Use MPS format to capture full model detail.
Maximize
 
Subject To
 obj1: y[0] = 0
 obj2: y[1] = 0
 obj1_Exp: - y[0] + 88 x[0] + 86 x[1] + 85 x[2] + 84 x[3] + 78 x[4]
   + 76 x[5] + 75 x[6] + 65 x[7] + 56 x[8] + 56 x[9] + 53 x[10] + 51 x[11]
   + 51 x[12] + 45 x[13] + 38 x[14] + 34 x[15] + 33 x[16] + 31 x[17]
   + 16 x[18] + 16 x[19] + 14 x[20] + 14 x[21] + 10 x[22] + 8 x[23] + x[24]
   = 0
 obj2_Exp: - y[1] + 19 x[0] + 43 x[1] + 11 x[2] + 22 x[3] + 55 x[4]
   + 71 x[5] + 8 x[6] + 15 x[7] + 34 x[8] + 77 x[9] + 90 x[10] + 84 x[11]
   + 63 x[12] + 51 x[13] + 45 x[14] + 5 x[15] + 61 x[16] + 80 x[17]
   + 78 x[18] + 10 x[19] + 31 x[20] + 9 x[21] + 37 x[22] + 85 x[23]
   + 37 x[24] = 0
 Budget: 98 x[0] + 96 x[1] + 95 x[2] + 94 x[3] + 88 x[4] + 86 x[5]
   + 85 x[6] + 75 x[7] + 66 x[8] + 66 x[9] + 63 x[10] + 61 x[11] + 61 x[12]
   + 55 x[13] + 48 x[14] + 44 x[15] + 43 x[16] + 41 x[17] + 26 x[18]
   + 26 x[19] + 24 x[20] + 24 x[21] + 20 x[22] + 18 x[23] + 11 x[24]
   <= 599
Bounds
Binaries
 x[0] x[1] x[2] x[3] x[4] x[5] x[6] x[7] x[8] x[9] x[10] x[11] x[12] x[13]
 x[14] x[15] x[16] x[17] x[18] x[19] x[20] x[21] x[22] x[23] x[24]
Generals
 y[0] y[1]
End
